data/lp_files/pEFS/52_3.lp
\ Model foo
\ LP format - for model browsing. Use MPS format to capture full model detail.
Minimize
  z
Subject To
 allocateEach[1]: x[1,1] + x[2,1] + x[3,1] = 1
 allocateEach[2]: x[1,2] + x[2,2] + x[3,2] = 1
 allocateEach[3]: x[1,3] + x[2,3] + x[3,3] = 1
 allocateEach[4]: x[1,4] + x[2,4] + x[3,4] = 1
 allocateEach[5]: x[1,5] + x[2,5] + x[3,5] = 1
 allocateEach[6]: x[1,6] + x[2,6] + x[3,6] = 1
 allocateEach[7]: x[1,7] + x[2,7] + x[3,7] = 1
 allocateEach[8]: x[1,8] + x[2,8] + x[3,8] = 1
 allocateEach[9]: x[1,9] + x[2,9] + x[3,9] = 1
 allocateEach[10]: x[1,10] + x[2,10] + x[3,10] = 1
 allocateEach[11]: x[1,11] + x[2,11] + x[3,11] = 1
 allocateEach[12]: x[1,12] + x[2,12] + x[3,12] = 1
 allocateAllCash: cashProportion[1] + cashProportion[2] + cashProportion[3]
   = 1
 findWorstP[1,2]: z + 0.0304761904761905 cashProportion[1]
   - 0.0304761904761905 cashProportion[2] + 0.0882590476190476 x[1,1]
   + 0.1345066666666667 x[1,2] + 0.0239390476190476 x[1,3]
   + 0.1391390476190476 x[1,4] + 0.0936380952380952 x[1,5]
   + 0.1219809523809524 x[1,6] + 0.1008914285714286 x[1,7]
   + 0.00618666666666667 x[1,8] + 0.1455085714285714 x[1,9]
   + 0.000167619 x[1,10] + 0.0754285714285714 x[1,11]
   + 0.0398780952380952 x[1,12] - 0.0882590476190476 x[2,1]
   - 0.1345066666666667 x[2,2] - 0.0239390476190476 x[2,3]
   - 0.1391390476190476 x[2,4] - 0.0936380952380952 x[2,5]
   - 0.1219809523809524 x[2,6] - 0.1008914285714286 x[2,7]
   - 0.00618666666666667 x[2,8] - 0.1455085714285714 x[2,9]
   - 0.000167619 x[2,10] - 0.0754285714285714 x[2,11]
   - 0.0398780952380952 x[2,12] >= 0
 findWorstP[1,3]: z + 0.0304761904761905 cashProportion[1]
   - 0.0304761904761905 cashProportion[3] + 0.0882590476190476 x[1,1]
   + 0.1345066666666667 x[1,2] + 0.0239390476190476 x[1,3]
   + 0.1391390476190476 x[1,4] + 0.0936380952380952 x[1,5]
   + 0.1219809523809524 x[1,6] + 0.1008914285714286 x[1,7]
   + 0.00618666666666667 x[1,8] + 0.1455085714285714 x[1,9]
   + 0.000167619 x[1,10] + 0.0754285714285714 x[1,11]
   + 0.0398780952380952 x[1,12] - 0.0882590476190476 x[3,1]
   - 0.1345066666666667 x[3,2] - 0.0239390476190476 x[3,3]
   - 0.1391390476190476 x[3,4] - 0.0936380952380952 x[3,5]
   - 0.1219809523809524 x[3,6] - 0.1008914285714286 x[3,7]
   - 0.00618666666666667 x[3,8] - 0.1455085714285714 x[3,9]
   - 0.000167619 x[3,10] - 0.0754285714285714 x[3,11]
   - 0.0398780952380952 x[3,12] >= 0
 findWorstP[2,1]: z - 0.0331021698472335 cashProportion[1]
   + 0.0331021698472335 cashProportion[2] - 0.0355517304159288 x[1,1]
   - 0.1443751137887088 x[1,2] - 0.0546847845876297 x[1,3]
   - 0.0928019331667191 x[1,4] - 0.1629288799880832 x[1,5]
   - 0.094274979724921 x[1,6] - 0.0354193217365398 x[1,7]
   - 0.1156258792763866 x[1,8] - 0.0837650407984243 x[1,9]
   - 0.0357337923500885 x[1,10] - 0.1047518164815704 x[1,11]
   - 0.00698455783776626 x[1,12] + 0.0355517304159288 x[2,1]
   + 0.1443751137887088 x[2,2] + 0.0546847845876297 x[2,3]
   + 0.0928019331667191 x[2,4] + 0.1629288799880832 x[2,5]
   + 0.094274979724921 x[2,6] + 0.0354193217365398 x[2,7]
   + 0.1156258792763866 x[2,8] + 0.0837650407984243 x[2,9]
   + 0.0357337923500885 x[2,10] + 0.1047518164815704 x[2,11]
   + 0.00698455783776626 x[2,12] >= 0
 findWorstP[2,3]: z + 0.0331021698472335 cashProportion[2]
   - 0.0331021698472335 cashProportion[3] + 0.0355517304159288 x[2,1]
   + 0.1443751137887088 x[2,2] + 0.0546847845876297 x[2,3]
   + 0.0928019331667191 x[2,4] + 0.1629288799880832 x[2,5]
   + 0.094274979724921 x[2,6] + 0.0354193217365398 x[2,7]
   + 0.1156258792763866 x[2,8] + 0.0837650407984243 x[2,9]
   + 0.0357337923500885 x[2,10] + 0.1047518164815704 x[2,11]
   + 0.00698455783776626 x[2,12] - 0.0355517304159288 x[3,1]
   - 0.1443751137887088 x[3,2] - 0.0546847845876297 x[3,3]
   - 0.0928019331667191 x[3,4] - 0.1629288799880832 x[3,5]
   - 0.094274979724921 x[3,6] - 0.0354193217365398 x[3,7]
   - 0.1156258792763866 x[3,8] - 0.0837650407984243 x[3,9]
   - 0.0357337923500885 x[3,10] - 0.1047518164815704 x[3,11]
   - 0.00698455783776626 x[3,12] >= 0
 findWorstP[3,1]: z - 0.03482439797322 cashProportion[1]
   + 0.03482439797322 cashProportion[3] - 0.0189444724974317 x[1,1]
   - 0.0939214013337744 x[1,2] - 0.0875833609026484 x[1,3]
   - 0.0247775591579461 x[1,4] - 0.1702390694920861 x[1,5]
   - 0.056972715084188 x[1,6] - 0.0143476519649667 x[1,7]
   - 0.1256638400863645 x[1,8] - 0.0657484633734394 x[1,9]
   - 0.0674722710731138 x[1,10] - 0.0759694241785795 x[1,11]
   - 0.1635353728822413 x[1,12] + 0.0189444724974317 x[3,1]
   + 0.0939214013337744 x[3,2] + 0.0875833609026484 x[3,3]
   + 0.0247775591579461 x[3,4] + 0.1702390694920861 x[3,5]
   + 0.056972715084188 x[3,6] + 0.0143476519649667 x[3,7]
   + 0.1256638400863645 x[3,8] + 0.0657484633734394 x[3,9]
   + 0.0674722710731138 x[3,10] + 0.0759694241785795 x[3,11]
   + 0.1635353728822413 x[3,12] >= 0
 findWorstP[3,2]: z - 0.03482439797322 cashProportion[2]
   + 0.03482439797322 cashProportion[3] - 0.0189444724974317 x[2,1]
   - 0.0939214013337744 x[2,2] - 0.0875833609026484 x[2,3]
   - 0.0247775591579461 x[2,4] - 0.1702390694920861 x[2,5]
   - 0.056972715084188 x[2,6] - 0.0143476519649667 x[2,7]
   - 0.1256638400863645 x[2,8] - 0.0657484633734394 x[2,9]
   - 0.0674722710731138 x[2,10] - 0.0759694241785795 x[2,11]
   - 0.1635353728822413 x[2,12] + 0.0189444724974317 x[3,1]
   + 0.0939214013337744 x[3,2] + 0.0875833609026484 x[3,3]
   + 0.0247775591579461 x[3,4] + 0.1702390694920861 x[3,5]
   + 0.056972715084188 x[3,6] + 0.0143476519649667 x[3,7]
   + 0.1256638400863645 x[3,8] + 0.0657484633734394 x[3,9]
   + 0.0674722710731138 x[3,10] + 0.0759694241785795 x[3,11]
   + 0.1635353728822413 x[3,12] >= 0
Bounds
 z <= 1
 -infinity <= cashProportion[1] <= 1
 -infinity <= cashProportion[2] <= 1
 -infinity <= cashProportion[3] <= 1
Binaries
 x[1,1] x[1,2] x[1,3] x[1,4] x[1,5] x[1,6] x[1,7] x[1,8] x[1,9] x[1,10]
 x[1,11] x[1,12] x[2,1] x[2,2] x[2,3] x[2,4] x[2,5] x[2,6] x[2,7] x[2,8]
 x[2,9] x[2,10] x[2,11] x[2,12] x[3,1] x[3,2] x[3,3] x[3,4] x[3,5] x[3,6]
 x[3,7] x[3,8] x[3,9] x[3,10] x[3,11] x[3,12]
End
