data/mps_files/pEFS/52_3.mps
NAME foo
ROWS
 N  OBJ
 E  allocateEach[1]
 E  allocateEach[2]
 E  allocateEach[3]
 E  allocateEach[4]
 E  allocateEach[5]
 E  allocateEach[6]
 E  allocateEach[7]
 E  allocateEach[8]
 E  allocateEach[9]
 E  allocateEach[10]
 E  allocateEach[11]
 E  allocateEach[12]
 E  allocateAllCash
 G  findWorstP[1,2]
 G  findWorstP[1,3]
 G  findWorstP[2,1]
 G  findWorstP[2,3]
 G  findWorstP[3,1]
 G  findWorstP[3,2]
COLUMNS
    z         OBJ       1
    z         findWorstP[1,2]  1
    z         findWorstP[1,3]  1
    z         findWorstP[2,1]  1
    z         findWorstP[2,3]  1
    z         findWorstP[3,1]  1
    z         findWorstP[3,2]  1
    cashProportion[1]  allocateAllCash  1
    cashProportion[1]  findWorstP[1,2]  3.0476190476190476e-02
    cashProportion[1]  findWorstP[1,3]  3.0476190476190476e-02
    cashProportion[1]  findWorstP[2,1]  -3.3102169847233485e-02
    cashProportion[1]  findWorstP[3,1]  -3.4824397973220032e-02
    cashProportion[2]  allocateAllCash  1
    cashProportion[2]  findWorstP[1,2]  -3.0476190476190476e-02
    cashProportion[2]  findWorstP[2,1]  3.3102169847233485e-02
    cashProportion[2]  findWorstP[2,3]  3.3102169847233485e-02
    cashProportion[2]  findWorstP[3,2]  -3.4824397973220032e-02
    cashProportion[3]  allocateAllCash  1
    cashProportion[3]  findWorstP[1,3]  -3.0476190476190476e-02
    cashProportion[3]  findWorstP[2,3]  -3.3102169847233485e-02
    cashProportion[3]  findWorstP[3,1]  3.4824397973220032e-02
    cashProportion[3]  findWorstP[3,2]  3.4824397973220032e-02
    MARKER    'MARKER'                 'INTORG'
    x[1,1]    allocateEach[1]  1
    x[1,1]    findWorstP[1,2]  8.8259047619047612e-02
    x[1,1]    findWorstP[1,3]  8.8259047619047612e-02
    x[1,1]    findWorstP[2,1]  -3.5551730415928760e-02
    x[1,1]    findWorstP[3,1]  -1.8944472497431697e-02
    x[1,2]    allocateEach[2]  1
    x[1,2]    findWorstP[1,2]  1.3450666666666666e-01
    x[1,2]    findWorstP[1,3]  1.3450666666666666e-01
    x[1,2]    findWorstP[2,1]  -1.4437511378870882e-01
    x[1,2]    findWorstP[3,1]  -9.3921401333774426e-02
    x[1,3]    allocateEach[3]  1
    x[1,3]    findWorstP[1,2]  2.3939047619047617e-02
    x[1,3]    findWorstP[1,3]  2.3939047619047617e-02
    x[1,3]    findWorstP[2,1]  -5.4684784587629716e-02
    x[1,3]    findWorstP[3,1]  -8.7583360902648386e-02
    x[1,4]    allocateEach[4]  1
    x[1,4]    findWorstP[1,2]  1.3913904761904761e-01
    x[1,4]    findWorstP[1,3]  1.3913904761904761e-01
    x[1,4]    findWorstP[2,1]  -9.2801933166719058e-02
    x[1,4]    findWorstP[3,1]  -2.4777559157946057e-02
    x[1,5]    allocateEach[5]  1
    x[1,5]    findWorstP[1,2]  9.3638095238095242e-02
    x[1,5]    findWorstP[1,3]  9.3638095238095242e-02
    x[1,5]    findWorstP[2,1]  -1.6292887998808320e-01
    x[1,5]    findWorstP[3,1]  -1.7023906949208614e-01
    x[1,6]    allocateEach[6]  1
    x[1,6]    findWorstP[1,2]  1.2198095238095237e-01
    x[1,6]    findWorstP[1,3]  1.2198095238095237e-01
    x[1,6]    findWorstP[2,1]  -9.4274979724920951e-02
    x[1,6]    findWorstP[3,1]  -5.6972715084187976e-02
    x[1,7]    allocateEach[7]  1
    x[1,7]    findWorstP[1,2]  1.0089142857142856e-01
    x[1,7]    findWorstP[1,3]  1.0089142857142856e-01
    x[1,7]    findWorstP[2,1]  -3.5419321736539826e-02
    x[1,7]    findWorstP[3,1]  -1.4347651964966655e-02
    x[1,8]    allocateEach[8]  1
    x[1,8]    findWorstP[1,2]  6.1866666666666658e-03
    x[1,8]    findWorstP[1,3]  6.1866666666666658e-03
    x[1,8]    findWorstP[2,1]  -1.1562587927638655e-01
    x[1,8]    findWorstP[3,1]  -1.2566384008636450e-01
    x[1,9]    allocateEach[9]  1
    x[1,9]    findWorstP[1,2]  1.4550857142857140e-01
    x[1,9]    findWorstP[1,3]  1.4550857142857140e-01
    x[1,9]    findWorstP[2,1]  -8.3765040798424326e-02
    x[1,9]    findWorstP[3,1]  -6.5748463373439425e-02
    x[1,10]   allocateEach[10]  1
    x[1,10]   findWorstP[1,2]  1.6761904761904760e-04
    x[1,10]   findWorstP[1,3]  1.6761904761904760e-04
    x[1,10]   findWorstP[2,1]  -3.5733792350088542e-02
    x[1,10]   findWorstP[3,1]  -6.7472271073113821e-02
    x[1,11]   allocateEach[11]  1
    x[1,11]   findWorstP[1,2]  7.5428571428571414e-02
    x[1,11]   findWorstP[1,3]  7.5428571428571414e-02
    x[1,11]   findWorstP[2,1]  -1.0475181648157035e-01
    x[1,11]   findWorstP[3,1]  -0.0759694241785795
    x[1,12]   allocateEach[12]  1
    x[1,12]   findWorstP[1,2]  3.9878095238095233e-02
    x[1,12]   findWorstP[1,3]  3.9878095238095233e-02
    x[1,12]   findWorstP[2,1]  -6.9845578377662650e-03
    x[1,12]   findWorstP[3,1]  -1.6353537288224129e-01
    x[2,1]    allocateEach[1]  1
    x[2,1]    findWorstP[1,2]  -8.8259047619047612e-02
    x[2,1]    findWorstP[2,1]  3.5551730415928760e-02
    x[2,1]    findWorstP[2,3]  3.5551730415928760e-02
    x[2,1]    findWorstP[3,2]  -1.8944472497431697e-02
    x[2,2]    allocateEach[2]  1
    x[2,2]    findWorstP[1,2]  -1.3450666666666666e-01
    x[2,2]    findWorstP[2,1]  1.4437511378870882e-01
    x[2,2]    findWorstP[2,3]  1.4437511378870882e-01
    x[2,2]    findWorstP[3,2]  -9.3921401333774426e-02
    x[2,3]    allocateEach[3]  1
    x[2,3]    findWorstP[1,2]  -2.3939047619047617e-02
    x[2,3]    findWorstP[2,1]  5.4684784587629716e-02
    x[2,3]    findWorstP[2,3]  5.4684784587629716e-02
    x[2,3]    findWorstP[3,2]  -8.7583360902648386e-02
    x[2,4]    allocateEach[4]  1
    x[2,4]    findWorstP[1,2]  -1.3913904761904761e-01
    x[2,4]    findWorstP[2,1]  9.2801933166719058e-02
    x[2,4]    findWorstP[2,3]  9.2801933166719058e-02
    x[2,4]    findWorstP[3,2]  -2.4777559157946057e-02
    x[2,5]    allocateEach[5]  1
    x[2,5]    findWorstP[1,2]  -9.3638095238095242e-02
    x[2,5]    findWorstP[2,1]  1.6292887998808320e-01
    x[2,5]    findWorstP[2,3]  1.6292887998808320e-01
    x[2,5]    findWorstP[3,2]  -1.7023906949208614e-01
    x[2,6]    allocateEach[6]  1
    x[2,6]    findWorstP[1,2]  -1.2198095238095237e-01
    x[2,6]    findWorstP[2,1]  9.4274979724920951e-02
    x[2,6]    findWorstP[2,3]  9.4274979724920951e-02
    x[2,6]    findWorstP[3,2]  -5.6972715084187976e-02
    x[2,7]    allocateEach[7]  1
    x[2,7]    findWorstP[1,2]  -1.0089142857142856e-01
    x[2,7]    findWorstP[2,1]  3.5419321736539826e-02
    x[2,7]    findWorstP[2,3]  3.5419321736539826e-02
    x[2,7]    findWorstP[3,2]  -1.4347651964966655e-02
    x[2,8]    allocateEach[8]  1
    x[2,8]    findWorstP[1,2]  -6.1866666666666658e-03
    x[2,8]    findWorstP[2,1]  1.1562587927638655e-01
    x[2,8]    findWorstP[2,3]  1.1562587927638655e-01
    x[2,8]    findWorstP[3,2]  -1.2566384008636450e-01
    x[2,9]    allocateEach[9]  1
    x[2,9]    findWorstP[1,2]  -1.4550857142857140e-01
    x[2,9]    findWorstP[2,1]  8.3765040798424326e-02
    x[2,9]    findWorstP[2,3]  8.3765040798424326e-02
    x[2,9]    findWorstP[3,2]  -6.5748463373439425e-02
    x[2,10]   allocateEach[10]  1
    x[2,10]   findWorstP[1,2]  -1.6761904761904760e-04
    x[2,10]   findWorstP[2,1]  3.5733792350088542e-02
    x[2,10]   findWorstP[2,3]  3.5733792350088542e-02
    x[2,10]   findWorstP[3,2]  -6.7472271073113821e-02
    x[2,11]   allocateEach[11]  1
    x[2,11]   findWorstP[1,2]  -7.5428571428571414e-02
    x[2,11]   findWorstP[2,1]  1.0475181648157035e-01
    x[2,11]   findWorstP[2,3]  1.0475181648157035e-01
    x[2,11]   findWorstP[3,2]  -0.0759694241785795
    x[2,12]   allocateEach[12]  1
    x[2,12]   findWorstP[1,2]  -3.9878095238095233e-02
    x[2,12]   findWorstP[2,1]  6.9845578377662650e-03
    x[2,12]   findWorstP[2,3]  6.9845578377662650e-03
    x[2,12]   findWorstP[3,2]  -1.6353537288224129e-01
    x[3,1]    allocateEach[1]  1
    x[3,1]    findWorstP[1,3]  -8.8259047619047612e-02
    x[3,1]    findWorstP[2,3]  -3.5551730415928760e-02
    x[3,1]    findWorstP[3,1]  1.8944472497431697e-02
    x[3,1]    findWorstP[3,2]  1.8944472497431697e-02
    x[3,2]    allocateEach[2]  1
    x[3,2]    findWorstP[1,3]  -1.3450666666666666e-01
    x[3,2]    findWorstP[2,3]  -1.4437511378870882e-01
    x[3,2]    findWorstP[3,1]  9.3921401333774426e-02
    x[3,2]    findWorstP[3,2]  9.3921401333774426e-02
    x[3,3]    allocateEach[3]  1
    x[3,3]    findWorstP[1,3]  -2.3939047619047617e-02
    x[3,3]    findWorstP[2,3]  -5.4684784587629716e-02
    x[3,3]    findWorstP[3,1]  8.7583360902648386e-02
    x[3,3]    findWorstP[3,2]  8.7583360902648386e-02
    x[3,4]    allocateEach[4]  1
    x[3,4]    findWorstP[1,3]  -1.3913904761904761e-01
    x[3,4]    findWorstP[2,3]  -9.2801933166719058e-02
    x[3,4]    findWorstP[3,1]  2.4777559157946057e-02
    x[3,4]    findWorstP[3,2]  2.4777559157946057e-02
    x[3,5]    allocateEach[5]  1
    x[3,5]    findWorstP[1,3]  -9.3638095238095242e-02
    x[3,5]    findWorstP[2,3]  -1.6292887998808320e-01
    x[3,5]    findWorstP[3,1]  1.7023906949208614e-01
    x[3,5]    findWorstP[3,2]  1.7023906949208614e-01
    x[3,6]    allocateEach[6]  1
    x[3,6]    findWorstP[1,3]  -1.2198095238095237e-01
    x[3,6]    findWorstP[2,3]  -9.4274979724920951e-02
    x[3,6]    findWorstP[3,1]  5.6972715084187976e-02
    x[3,6]    findWorstP[3,2]  5.6972715084187976e-02
    x[3,7]    allocateEach[7]  1
    x[3,7]    findWorstP[1,3]  -1.0089142857142856e-01
    x[3,7]    findWorstP[2,3]  -3.5419321736539826e-02
    x[3,7]    findWorstP[3,1]  1.4347651964966655e-02
    x[3,7]    findWorstP[3,2]  1.4347651964966655e-02
    x[3,8]    allocateEach[8]  1
    x[3,8]    findWorstP[1,3]  -6.1866666666666658e-03
    x[3,8]    findWorstP[2,3]  -1.1562587927638655e-01
    x[3,8]    findWorstP[3,1]  1.2566384008636450e-01
    x[3,8]    findWorstP[3,2]  1.2566384008636450e-01
    x[3,9]    allocateEach[9]  1
    x[3,9]    findWorstP[1,3]  -1.4550857142857140e-01
    x[3,9]    findWorstP[2,3]  -8.3765040798424326e-02
    x[3,9]    findWorstP[3,1]  6.5748463373439425e-02
    x[3,9]    findWorstP[3,2]  6.5748463373439425e-02
    x[3,10]   allocateEach[10]  1
    x[3,10]   findWorstP[1,3]  -1.6761904761904760e-04
    x[3,10]   findWorstP[2,3]  -3.5733792350088542e-02
    x[3,10]   findWorstP[3,1]  6.7472271073113821e-02
    x[3,10]   findWorstP[3,2]  6.7472271073113821e-02
    x[3,11]   allocateEach[11]  1
    x[3,11]   findWorstP[1,3]  -7.5428571428571414e-02
    x[3,11]   findWorstP[2,3]  -1.0475181648157035e-01
    x[3,11]   findWorstP[3,1]  0.0759694241785795
    x[3,11]   findWorstP[3,2]  0.0759694241785795
    x[3,12]   allocateEach[12]  1
    x[3,12]   findWorstP[1,3]  -3.9878095238095233e-02
    x[3,12]   findWorstP[2,3]  -6.9845578377662650e-03
    x[3,12]   findWorstP[3,1]  1.6353537288224129e-01
    x[3,12]   findWorstP[3,2]  1.6353537288224129e-01
    MARKER    'MARKER'                 'INTEND'
RHS
    RHS1      allocateEach[1]  1
    RHS1      allocateEach[2]  1
    RHS1      allocateEach[3]  1
    RHS1      allocateEach[4]  1
    RHS1      allocateEach[5]  1
    RHS1      allocateEach[6]  1
    RHS1      allocateEach[7]  1
    RHS1      allocateEach[8]  1
    RHS1      allocateEach[9]  1
    RHS1      allocateEach[10]  1
    RHS1      allocateEach[11]  1
    RHS1      allocateEach[12]  1
    RHS1      allocateAllCash  1
BOUNDS
 UP BND1      z         1
 MI BND1      cashProportion[1]
 UP BND1      cashProportion[1]  1
 MI BND1      cashProportion[2]
 UP BND1      cashProportion[2]  1
 MI BND1      cashProportion[3]
 UP BND1      cashProportion[3]  1
 BV BND1      x[1,1]  
 BV BND1      x[1,2]  
 BV BND1      x[1,3]  
 BV BND1      x[1,4]  
 BV BND1      x[1,5]  
 BV BND1      x[1,6]  
 BV BND1      x[1,7]  
 BV BND1      x[1,8]  
 BV BND1      x[1,9]  
 BV BND1      x[1,10] 
 BV BND1      x[1,11] 
 BV BND1      x[1,12] 
 BV BND1      x[2,1]  
 BV BND1      x[2,2]  
 BV BND1      x[2,3]  
 BV BND1      x[2,4]  
 BV BND1      x[2,5]  
 BV BND1      x[2,6]  
 BV BND1      x[2,7]  
 BV BND1      x[2,8]  
 BV BND1      x[2,9]  
 BV BND1      x[2,10] 
 BV BND1      x[2,11] 
 BV BND1      x[2,12] 
 BV BND1      x[3,1]  
 BV BND1      x[3,2]  
 BV BND1      x[3,3]  
 BV BND1      x[3,4]  
 BV BND1      x[3,5]  
 BV BND1      x[3,6]  
 BV BND1      x[3,7]  
 BV BND1      x[3,8]  
 BV BND1      x[3,9]  
 BV BND1      x[3,10] 
 BV BND1      x[3,11] 
 BV BND1      x[3,12] 
ENDATA
